p cnf 15 66
4 -6 -12 0
10 -13 -15 0
10 -11 14 0
9 -11 12 0
3 8 -15 0
9 -10 -11 0
-2 -4 -15 0
2 5 -11 0
4 -5 -9 0
-1 -9 -14 0
-4 5 -8 0
7 -8 12 0
10 -11 12 0
-1 -6 -8 0
-4 -10 12 0
1 -7 -14 0
-4 5 15 0
3 4 -13 0
-3 -13 -14 0
-6 -13 15 0
2 -9 -11 0
5 -6 -13 0
-3 -10 13 0
-3 -8 10 0
-1 -4 -11 0
2 -3 -15 0
2 9 12 0
4 8 -15 0
8 -13 15 0
-4 8 14 0
-7 8 -13 0
4 8 15 0
4 11 13 0
-10 -12 -13 0
-2 4 -15 0
5 7 -12 0
5 -10 -13 0
3 -7 -8 0
-5 -6 -12 0
-3 -7 -15 0
1 14 15 0
9 11 -15 0
12 13 14 0
2 6 -10 0
4 9 -11 0
-8 -10 14 0
-3 -7 14 0
4 -8 -11 0
1 -10 11 0
7 10 -13 0
-8 9 -12 0
2 -5 6 0
3 -8 11 0
-1 -5 7 0
3 4 10 0
-8 -12 -13 0
-3 5 -9 0
-7 10 -15 0
-3 4 -9 0
3 -6 11 0
3 9 -13 0
3 11 12 0
-1 6 -13 0
2 -3 6 0
1 -6 13 0
1 9 13 0
